mixintcount/benchmarks/random_v2l/4_4_14.in
16 6
#	x1	x2	x3	x4;		0 = Real; 1 = Integer
	1	1	1	1
1	-9	-6	-7	-1	-1
1	-1	7	-9	-9	11
1	6	-6	-9	-8	7
1	-9	7	-1	-7	14
1	1	-7	-5	-3	1
1	-5	-10	7	8	10
1	2	8	5	5	-1
1	-4	-8	-9	-5	-10
1	1	0	0	0	14
1	-1	0	0	0	14
1	0	1	0	0	14
1	0	-1	0	0	14
1	0	0	1	0	14
1	0	0	-1	0	14
1	0	0	0	1	14
1	0	0	0	-1	14
